20J7M/DAT/20J7MULL-11.dat
20 7
13.1089 13.1089
45.6441 45.6441
35.6539 35.6539
48.9134 48.9134
2.2036 2.2036
33.5223 33.5223
22.9049 22.9049
26.3287 26.3287
6.5772 6.5772
15.1533 15.1533
32.5688 32.5688
34.712 34.712
19.787 19.787
47.6625 47.6625
29.3453 29.3453
17.6735 17.6735
27.5682 27.5682
12.2596 12.2596
37.6262 37.6262
10.0487 10.0487
74.1803