20J7M/SOL/20J7MULL-11.sol
solution status: optimal solution found
objective value:                     85.7100571428571
x#1#5                                               1 	(obj:0)
x#2#7                                               1 	(obj:0)
x#3#4                                               1 	(obj:0)
x#4#2                                               1 	(obj:0)
x#5#5                                               1 	(obj:0)
x#6#5                                               1 	(obj:0)
x#7#1                                               1 	(obj:0)
x#8#7                                               1 	(obj:0)
x#9#6                                               1 	(obj:0)
x#10#7                                              1 	(obj:0)
x#11#1                              0.751844831141388 	(obj:0)
x#11#4                               0.12638194580622 	(obj:0)
x#11#6                              0.121773223052392 	(obj:0)
x#12#5                                              1 	(obj:0)
x#13#2                               0.24295756395805 	(obj:0)
x#13#3                               0.75704243604195 	(obj:0)
x#14#6                                              1 	(obj:0)
x#15#1                              0.207929264292925 	(obj:0)
x#15#2                              0.541957091289461 	(obj:0)
x#15#7                              0.250113644417615 	(obj:0)
x#16#5                              0.354857334998559 	(obj:0)
x#16#7                              0.645142665001441 	(obj:0)
x#17#4                                              1 	(obj:0)
x#18#4                                              1 	(obj:0)
x#19#3                                              1 	(obj:0)
x#20#6                                              1 	(obj:0)
z                                    85.7100571428571 	(obj:1)
